c Generated map
c Size: 12 * 12, weights in range: 1 to 10, walls: True, with ratio 0.1
c dim 3 of 5
c
p sp 144 214
c graph contains 144 nodes and 214 arcs
c
a 1 13 5
a 13 1 5
a 1 2 9
a 2 1 9
a 2 14 1
a 14 2 1
a 2 3 4
a 3 2 4
a 3 15 4
a 15 3 4
a 3 4 5
a 4 3 5
a 4 16 10
a 16 4 10
a 4 5 3
a 5 4 3
a 5 6 9
a 6 5 9
a 6 18 3
a 18 6 3
a 6 7 2
a 7 6 2
a 7 19 9
a 19 7 9
a 7 8 3
a 8 7 3
a 8 20 8
a 20 8 8
a 8 9 10
a 9 8 10
a 9 21 4
a 21 9 4
a 9 10 4
a 10 9 4
a 10 22 2
a 22 10 2
a 10 11 9
a 11 10 9
a 11 23 9
a 23 11 9
a 11 12 7
a 12 11 7
a 12 24 5
a 24 12 5
a 13 25 10
a 25 13 10
a 13 14 9
a 14 13 9
a 14 26 9
a 26 14 9
a 14 15 7
a 15 14 7
a 15 27 1
a 27 15 1
a 15 16 4
a 16 15 4
a 16 28 3
a 28 16 3
a 18 19 7
a 19 18 7
a 19 31 1
a 31 19 1
a 19 20 6
a 20 19 6
a 20 32 3
a 32 20 3
a 20 21 9
a 21 20 9
a 21 33 2
a 33 21 2
a 21 22 5
a 22 21 5
a 22 23 10
a 23 22 10
a 23 24 3
a 24 23 3
a 24 36 10
a 36 24 10
a 25 37 6
a 37 25 6
a 25 26 7
a 26 25 7
a 26 38 10
a 38 26 10
a 26 27 9
a 27 26 9
a 27 39 9
a 39 27 9
a 27 28 7
a 28 27 7
a 28 40 6
a 40 28 6
a 28 29 3
a 29 28 3
a 29 41 4
a 41 29 4
a 31 32 5
a 32 31 5
a 32 44 4
a 44 32 4
a 32 33 9
a 33 32 9
a 33 45 9
a 45 33 9
a 36 48 8
a 48 36 8
a 37 49 3
a 49 37 3
a 37 38 3
a 38 37 3
a 38 50 2
a 50 38 2
a 38 39 6
a 39 38 6
a 39 40 8
a 40 39 8
a 40 52 10
a 52 40 10
a 40 41 7
a 41 40 7
a 41 42 6
a 42 41 6
a 44 56 5
a 56 44 5
a 44 45 8
a 45 44 8
a 45 57 8
a 57 45 8
a 45 46 3
a 46 45 3
a 46 58 9
a 58 46 9
a 46 47 9
a 47 46 9
a 47 59 4
a 59 47 4
a 47 48 6
a 48 47 6
a 48 60 9
a 60 48 9
a 49 61 5
a 61 49 5
a 49 50 7
a 50 49 7
a 50 62 5
a 62 50 5
a 52 64 2
a 64 52 2
a 55 67 1
a 67 55 1
a 55 56 3
a 56 55 3
a 56 68 2
a 68 56 2
a 56 57 2
a 57 56 2
a 57 69 7
a 69 57 7
a 57 58 5
a 58 57 5
a 58 70 2
a 70 58 2
a 58 59 1
a 59 58 1
a 59 71 3
a 71 59 3
a 59 60 5
a 60 59 5
a 60 72 6
a 72 60 6
a 61 62 1
a 62 61 1
a 62 74 8
a 74 62 8
a 62 63 9
a 63 62 9
a 63 75 10
a 75 63 10
a 63 64 7
a 64 63 7
a 64 76 6
a 76 64 6
a 64 65 6
a 65 64 6
a 65 77 8
a 77 65 8
a 65 66 4
a 66 65 4
a 66 78 1
a 78 66 1
a 66 67 10
a 67 66 10
a 67 68 10
a 68 67 10
a 68 80 3
a 80 68 3
a 68 69 4
a 69 68 4
a 69 81 5
a 81 69 5
a 69 70 9
a 70 69 9
a 70 82 10
a 82 70 10
a 70 71 2
a 71 70 2
a 71 83 7
a 83 71 7
a 71 72 4
a 72 71 4
a 74 86 9
a 86 74 9
a 74 75 8
a 75 74 8
a 75 87 10
a 87 75 10
a 75 76 3
a 76 75 3
a 76 88 7
a 88 76 7
a 76 77 4
a 77 76 4
a 77 89 4
a 89 77 4
a 77 78 8
a 78 77 8
a 78 90 1
a 90 78 1
a 80 92 1
a 92 80 1
a 80 81 1
a 81 80 1
a 81 93 1
a 93 81 1
a 81 82 1
a 82 81 1
a 82 94 7
a 94 82 7
a 82 83 6
a 83 82 6
a 83 95 2
a 95 83 2
a 85 97 9
a 97 85 9
a 85 86 10
a 86 85 10
a 86 98 9
a 98 86 9
a 86 87 10
a 87 86 10
a 87 99 5
a 99 87 5
a 87 88 1
a 88 87 1
a 88 100 5
a 100 88 5
a 88 89 7
a 89 88 7
a 89 101 4
a 101 89 4
a 89 90 6
a 90 89 6
a 90 102 4
a 102 90 4
a 90 91 8
a 91 90 8
a 91 103 9
a 103 91 9
a 91 92 2
a 92 91 2
a 92 104 6
a 104 92 6
a 92 93 8
a 93 92 8
a 93 105 1
a 105 93 1
a 93 94 1
a 94 93 1
a 94 106 7
a 106 94 7
a 94 95 6
a 95 94 6
a 95 107 8
a 107 95 8
a 95 96 6
a 96 95 6
a 96 108 5
a 108 96 5
a 97 98 8
a 98 97 8
a 98 110 6
a 110 98 6
a 98 99 6
a 99 98 6
a 99 100 4
a 100 99 4
a 100 112 4
a 112 100 4
a 100 101 8
a 101 100 8
a 101 113 10
a 113 101 10
a 101 102 10
a 102 101 10
a 102 114 10
a 114 102 10
a 102 103 5
a 103 102 5
a 103 115 1
a 115 103 1
a 103 104 1
a 104 103 1
a 104 116 2
a 116 104 2
a 104 105 3
a 105 104 3
a 105 117 3
a 117 105 3
a 105 106 3
a 106 105 3
a 106 118 4
a 118 106 4
a 106 107 10
a 107 106 10
a 107 119 5
a 119 107 5
a 107 108 8
a 108 107 8
a 110 122 2
a 122 110 2
a 112 124 7
a 124 112 7
a 112 113 3
a 113 112 3
a 113 125 10
a 125 113 10
a 113 114 4
a 114 113 4
a 114 126 6
a 126 114 6
a 114 115 8
a 115 114 8
a 115 127 5
a 127 115 5
a 115 116 4
a 116 115 4
a 116 128 3
a 128 116 3
a 116 117 8
a 117 116 8
a 117 129 7
a 129 117 7
a 117 118 2
a 118 117 2
a 118 130 6
a 130 118 6
a 118 119 8
a 119 118 8
a 119 131 2
a 131 119 2
a 121 133 6
a 133 121 6
a 121 122 6
a 122 121 6
a 122 134 3
a 134 122 3
a 122 123 10
a 123 122 10
a 123 135 8
a 135 123 8
a 123 124 8
a 124 123 8
a 124 136 5
a 136 124 5
a 124 125 4
a 125 124 4
a 125 137 6
a 137 125 6
a 125 126 8
a 126 125 8
a 126 138 4
a 138 126 4
a 126 127 5
a 127 126 5
a 127 139 8
a 139 127 8
a 127 128 8
a 128 127 8
a 128 140 2
a 140 128 2
a 128 129 3
a 129 128 3
a 129 141 3
a 141 129 3
a 129 130 10
a 130 129 10
a 130 142 3
a 142 130 3
a 130 131 2
a 131 130 2
a 131 143 9
a 143 131 9
a 131 132 4
a 132 131 4
a 132 144 10
a 144 132 10
a 133 134 7
a 134 133 7
a 134 135 3
a 135 134 3
a 135 136 2
a 136 135 2
a 136 137 6
a 137 136 6
a 137 138 1
a 138 137 1
a 138 139 9
a 139 138 9
a 139 140 2
a 140 139 2
a 140 141 2
a 141 140 2
a 141 142 8
a 142 141 8
a 142 143 9
a 143 142 9
a 143 144 4
a 144 143 4
